p cnf 21 48
a 12 6 0
e 1 2 3 4 5 7 8 9 10 11 13 14 15 16 17 18 19 20 21 0
-2 1 0
-2 1 0
-1 2 0
5 3 0
5 4 0
-3 -4 -5 0
-8 6 0
-8 7 0
-6 -7 8 0
10 -8 0
10 9 0
8 -9 -10 0
11 -5 0
11 10 0
5 -10 -11 0
-12 3 -13 0
12 -3 -13 0
-12 -3 13 0
12 3 13 0
-13 3 -14 0
13 -3 -14 0
-13 -3 14 0
13 3 14 0
-13 9 -15 0
13 -9 -15 0
-13 -9 15 0
13 9 15 0
-16 14 0
-16 15 0
-14 -15 16 0
-18 -17 0
-18 -17 0
17 18 0
16 -18 -19 0
-16 18 -19 0
16 18 19 0
-16 -18 19 0
-20 11 0
-20 -19 0
-11 19 20 0
21 -2 0
21 -20 0
2 20 -21 0
-14 -17 15 8 19 2 -10 12 0
15 13 -4 16 0
16 11 -21 -15 -10 20 -6 0
10 14 -13 18 -6 -12 0
21 0
